Crypto/instances/samples/hf_n23/hf_n23_cnf02.sol
c DPLL-like Solver for max-min SAT
f file hf_n23_cnf02.cnf
p cnf 23 95
s max  95 -6 5 8 2 -1 3 14 15 16 13 7 9 -10 19 11 -4 -20 -17 -12 -23 -22 -18 -21
s min  79 -6 -5 8 2 -1 3 14 -15 -16 -13 -7 -9 10 19 -11 4 -20 17 -12 -23 -22 -18 -21